experiments/scripts/extractfix/binutils/CVE-2018-10372/components/ph.smt2
(declare-const rvalue_ph (_ BitVec 32))
(declare-const lvalue_ph (_ BitVec 32))
(declare-const rreturn (_ BitVec 32))
(declare-const lreturn (_ BitVec 32))
(assert (and (= rreturn rvalue_ph) (= lreturn lvalue_ph)))